47
raw_data/mm-rcpsp/MMLIB50/J5010_2.mm
Time limit set to 60 seconds
Running CP solver
/home/omastto1/General-Optimization-Solver/src/solvers/mmrcpsp.py:42(stream:276:6): Warning: Cumulative expression 'pulse': height is zero, expression is zero everywhere.
                                                                                               VarCumulAtom_419 = pulse(task_0_mode_0, 0)
/home/omastto1/General-Optimization-Solver/src/solvers/mmrcpsp.py:42(stream:276:3909): Warning: Cumulative expression 'pulse': height is zero, expression is zero everywhere.
                                                                                                  VarCumulAtom_570 = pulse(task_51_mode_0, 0)
/home/omastto1/General-Optimization-Solver/src/solvers/mmrcpsp.py:42(stream:277:6): Warning: Cumulative expression 'pulse': height is zero, expression is zero everywhere.
                                                                                               VarCumulAtom_574 = pulse(task_0_mode_0, 0)
/home/omastto1/General-Optimization-Solver/src/solvers/mmrcpsp.py:42(stream:277:3909): Warning: Cumulative expression 'pulse': height is zero, expression is zero everywhere.
                                                                                                  VarCumulAtom_725 = pulse(task_51_mode_0, 0)
 ! --------------------------------------------------- CP Optimizer 20.1.0.0 --
 ! Minimization problem - 205 variables, 269 constraints
 ! TimeLimit            = 60
 ! Workers              = 14
 ! LogVerbosity         = Terse
 ! Initial process time : 0.00s (0.00s extraction + 0.00s propagation)
 !  . Log search space  : 524.6 (before), 524.6 (after)
 !  . Memory usage      : 1.3 MB (before), 1.3 MB (after)
 ! Using parallel search with 14 workers.
 ! ----------------------------------------------------------------------------
 !          Best Branches  Non-fixed    W       Branch decision
                        0        205                 -
 + New bound is 18
 ! Using iterative diving.
 ! Using temporal relaxation.
 *            56      109  0.87s        1      (gap is 67.86%)
 *            55      305  0.87s        1      (gap is 67.27%)
 *            52      497  0.87s        1      (gap is 65.38%)
 *            51      883  0.87s        1      (gap is 64.71%)
 *            49     1077  0.87s        1      (gap is 63.27%)
 *            48     1128  0.87s        1      (gap is 62.50%)
 *            46     1300  0.87s        1      (gap is 60.87%)
 *            45     1228  0.87s        3      (gap is 60.00%)
 *            44     1217  0.87s        5      (gap is 59.09%)
 *            43     2637  1.59s        1      (gap is 58.14%)
 *            42     6086  2.34s        4      (gap is 57.14%)
              42     7532         24    8   F        -
 + New bound is 19 (gap is 54.76%)
 *            40     8234  3.11s        4      (gap is 52.50%)
 ! Using failure-directed search.
 *            39    26551  5.29s        5      (gap is 51.28%)
 *            38    24273  6.75s        7      (gap is 50.00%)
 *            37    33769  9.67s        3      (gap is 48.65%)
 *            36    99086  21.67s       9      (gap is 47.22%)
 *            35    81249  23.92s      11      (gap is 45.71%)
 ! ----------------------------------------------------------------------------
 ! Search terminated by limit, 17 solutions found.
 ! Best objective         : 35 (gap is 45.71%)
 ! Best bound             : 19
 ! ----------------------------------------------------------------------------
 ! Number of branches     : 5490193
 ! Number of fails        : 1073321
 ! Total memory usage     : 20.0 MB (19.8 MB CP Optimizer + 0.2 MB Concert)
 ! Time spent in solve    : 60.03s (60.03s engine + 0.00s extraction)
 ! Search speed (br. / s) : 91472.7
 ! ----------------------------------------------------------------------------
task_0: (start=0, end=0, size=0, length=0)
Task 0 is scheduled in mode 0 from 0 to 0
task_1: (start=1, end=3, size=2, length=2)
Task 1 is scheduled in mode 0 from 1 to 3
task_2: (start=0, end=1, size=1, length=1)
Task 2 is scheduled in mode 0 from 0 to 1
task_3: (start=1, end=3, size=2, length=2)
Task 3 is scheduled in mode 0 from 1 to 3
task_4: (start=0, end=1, size=1, length=1)
Task 4 is scheduled in mode 0 from 0 to 1
task_5: (start=0, end=1, size=1, length=1)
Task 5 is scheduled in mode 0 from 0 to 1
task_6: (start=3, end=7, size=4, length=4)
Task 6 is scheduled in mode 0 from 3 to 7
task_7: (start=3, end=8, size=5, length=5)
Task 7 is scheduled in mode 2 from 3 to 8
task_8: (start=1, end=8, size=7, length=7)
Task 8 is scheduled in mode 2 from 1 to 8
task_9: (start=4, end=10, size=6, length=6)
Task 9 is scheduled in mode 1 from 4 to 10
task_10: (start=7, end=16, size=9, length=9)
Task 10 is scheduled in mode 2 from 7 to 16
task_11: (start=0, end=1, size=1, length=1)
Task 11 is scheduled in mode 0 from 0 to 1
task_12: (start=1, end=3, size=2, length=2)
Task 12 is scheduled in mode 0 from 1 to 3
task_13: (start=4, end=14, size=10, length=10)
Task 13 is scheduled in mode 2 from 4 to 14
task_14: (start=0, end=1, size=1, length=1)
Task 14 is scheduled in mode 0 from 0 to 1
task_15: (start=3, end=6, size=3, length=3)
Task 15 is scheduled in mode 0 from 3 to 6
task_16: (start=3, end=6, size=3, length=3)
Task 16 is scheduled in mode 1 from 3 to 6
task_17: (start=1, end=3, size=2, length=2)
Task 17 is scheduled in mode 0 from 1 to 3
task_18: (start=10, end=11, size=1, length=1)
Task 18 is scheduled in mode 0 from 10 to 11
task_19: (start=6, end=10, size=4, length=4)
Task 19 is scheduled in mode 0 from 6 to 10
task_20: (start=7, end=11, size=4, length=4)
Task 20 is scheduled in mode 1 from 7 to 11
task_21: (start=10, end=20, size=10, length=10)
Task 21 is scheduled in mode 2 from 10 to 20
task_22: (start=13, end=21, size=8, length=8)
Task 22 is scheduled in mode 1 from 13 to 21
task_23: (start=10, end=18, size=8, length=8)
Task 23 is scheduled in mode 2 from 10 to 18
task_24: (start=8, end=18, size=10, length=10)
Task 24 is scheduled in mode 2 from 8 to 18
task_25: (start=16, end=26, size=10, length=10)
Task 25 is scheduled in mode 2 from 16 to 26
task_26: (start=3, end=4, size=1, length=1)
Task 26 is scheduled in mode 0 from 3 to 4
task_27: (start=13, end=19, size=6, length=6)
Task 27 is scheduled in mode 2 from 13 to 19
task_28: (start=18, end=23, size=5, length=5)
Task 28 is scheduled in mode 1 from 18 to 23
task_29: (start=11, end=16, size=5, length=5)
Task 29 is scheduled in mode 1 from 11 to 16
task_30: (start=23, end=32, size=9, length=9)
Task 30 is scheduled in mode 2 from 23 to 32
task_31: (start=20, end=22, size=2, length=2)
Task 31 is scheduled in mode 0 from 20 to 22
task_32: (start=21, end=26, size=5, length=5)
Task 32 is scheduled in mode 2 from 21 to 26
task_33: (start=14, end=18, size=4, length=4)
Task 33 is scheduled in mode 1 from 14 to 18
task_34: (start=32, end=35, size=3, length=3)
Task 34 is scheduled in mode 1 from 32 to 35
task_35: (start=28, end=32, size=4, length=4)
Task 35 is scheduled in mode 1 from 28 to 32
task_36: (start=26, end=27, size=1, length=1)
Task 36 is scheduled in mode 0 from 26 to 27
task_37: (start=26, end=35, size=9, length=9)
Task 37 is scheduled in mode 2 from 26 to 35
task_38: (start=23, end=32, size=9, length=9)
Task 38 is scheduled in mode 2 from 23 to 32
task_39: (start=26, end=29, size=3, length=3)
Task 39 is scheduled in mode 0 from 26 to 29
task_40: (start=26, end=28, size=2, length=2)
Task 40 is scheduled in mode 1 from 26 to 28
task_41: (start=27, end=35, size=8, length=8)
Task 41 is scheduled in mode 2 from 27 to 35
task_42: (start=22, end=23, size=1, length=1)
Task 42 is scheduled in mode 0 from 22 to 23
task_43: (start=19, end=22, size=3, length=3)
Task 43 is scheduled in mode 1 from 19 to 22
task_44: (start=26, end=27, size=1, length=1)
Task 44 is scheduled in mode 0 from 26 to 27
task_45: (start=18, end=22, size=4, length=4)
Task 45 is scheduled in mode 0 from 18 to 22
task_46: (start=29, end=35, size=6, length=6)
Task 46 is scheduled in mode 0 from 29 to 35
task_47: (start=22, end=26, size=4, length=4)
Task 47 is scheduled in mode 0 from 22 to 26
task_48: (start=27, end=35, size=8, length=8)
Task 48 is scheduled in mode 2 from 27 to 35
task_49: (start=11, end=13, size=2, length=2)
Task 49 is scheduled in mode 1 from 11 to 13
task_50: (start=23, end=26, size=3, length=3)
Task 50 is scheduled in mode 0 from 23 to 26
task_51: (start=35, end=35, size=0, length=0)
Task 51 is scheduled in mode 0 from 35 to 35
Feasible solution found
Objective value: 35
Solution is 84.2 % worse than the lower bound.
